B=5;
D=1;
P=9;
S=9;
demands = [2 2 4 4 4 1 4 2 1 ];
capacities = [7 9 9 10 4 9 4 8 2 ];
dist_start = [7 6 9 1 6 1 3 7 2 ];
dist = [9 5 4 10 3 2 5 6 2 6 6 3 9 9 4 8 6 8 9 9 5 5 7 5 7 2 6 9 1 9 5 9 3 8 9 8 2 3 3 3 10 10 5 8 9 8 7 6 7 5 6 2 2 2 8 8 4 3 9 4 1 3 4 6 1 2 3 2 6 7 4 7 7 8 5 7 7 1 2 4 8 ];
